row=9;
column=9;

Board=[|5,0,9,3,6,7,8,4,0|0,0,3,0,2,4,7,5,9|1,7,4,0,0,8,0,6,2|3,4,0,0,0,9,5,0,0|0,0,0,6,0,5,2,8,0|8,0,0,4,7,0,9,0,0|0,0,8,7,4,1,6,2,5|2,0,0,0,9,0,0,3,0|4,0,5,2,0,0,1,0,7|];
